(set-info :source |printed by MathSAT|)
(declare-fun |.x{13}| () (Array Int Int))
(declare-fun |.x{18}| () (Array Int Int))
(declare-fun |.x{14}| () (Array Int Int))
(declare-fun |.x{19}| () (Array Int Int))
(declare-fun |.x{15}| () Int)
(declare-fun |.y{6}| () Int)
(declare-fun |.x{16}| () Int)
(declare-fun |.y{7}| () Int)
(declare-fun |.y{3}| () (Array Int Int))
(declare-fun |.x{17}| () (Array Int Int))
(declare-fun |.y{4}| () Int)
(declare-fun |.x{20}| () Int)
(declare-fun |.y{5}| () Int)
(declare-fun |.x{21}| () Int)
(declare-fun |.loc{2}| () Bool)
(declare-fun |.loc{3}| () Bool)
(declare-fun |.x{37}| () Int)
(define-fun .def_14 () Int (! |.x{16}| :next |.y{7}|))
(define-fun .def_77 () Bool (= .def_14 100000))
(define-fun .def_12 () Int (! |.x{15}| :next |.y{6}|))
(define-fun .def_75 () Bool (= .def_12 0))
(define-fun .def_78 () Bool (and .def_75 .def_77))
(define-fun .def_22 () Bool (! |.loc{2}| :next |.loc{3}|))
(define-fun .def_25 () Bool (not .def_22))
(define-fun .def_79 () Bool (! (and .def_25 .def_78) :init true))
(define-fun .def_8 () (Array Int Int) (! |.x{13}| :next |.x{18}|))
(define-fun .def_70 () Bool (= .def_8 |.x{18}|))
(define-fun .def_10 () (Array Int Int) (! |.x{14}| :next |.x{19}|))
(define-fun .def_69 () Bool (= .def_10 |.x{19}|))
(define-fun .def_71 () Bool (and .def_69 .def_70))
(define-fun .def_72 () Bool (and |.loc{3}| .def_71))
(define-fun .def_65 () Bool (= .def_14 |.x{21}|))
(define-fun .def_63 () Bool (= |.x{20}| 0))
(define-fun .def_64 () Bool (and .def_25 .def_63))
(define-fun .def_66 () Bool (and .def_64 .def_65))
(define-fun .def_42 () Bool (<= .def_14 .def_12))
(define-fun .def_67 () Bool (and .def_42 .def_66))
(define-fun .def_58 () Int (* (- 1) |.x{20}|))
(define-fun .def_18 () Int (! |.y{4}| :next |.x{20}|))
(define-fun .def_59 () Int (+ .def_18 .def_58))
(define-fun .def_60 () Bool (= .def_59 (- 1)))
(define-fun .def_51 () Int (select .def_10 .def_18))
(define-fun .def_50 () Int (select .def_8 .def_18))
(define-fun .def_52 () Int (+ .def_50 .def_51))
(define-fun .def_16 () (Array Int Int) (! |.y{3}| :next |.x{17}|))
(define-fun .def_53 () (Array Int Int) (store .def_16 .def_18 .def_52))
(define-fun .def_54 () Bool (= |.x{17}| .def_53))
(define-fun .def_20 () Int (! |.y{5}| :next |.x{21}|))
(define-fun .def_47 () Bool (<= .def_20 .def_18))
(define-fun .def_48 () Bool (not .def_47))
(define-fun .def_45 () Bool (= .def_20 |.x{21}|))
(define-fun .def_46 () Bool (and .def_22 .def_45))
(define-fun .def_49 () Bool (and .def_46 .def_48))
(define-fun .def_55 () Bool (and .def_49 .def_54))
(define-fun .def_61 () Bool (and .def_55 .def_60))
(define-fun .def_68 () Bool (or .def_61 .def_67))
(define-fun .def_73 () Bool (and .def_68 .def_72))
(define-fun .def_43 () Bool (not .def_42))
(define-fun .def_38 () Int (* (- 1) |.y{6}|))
(define-fun .def_39 () Int (+ .def_12 .def_38))
(define-fun .def_40 () Bool (= .def_39 (- 1)))
(define-fun .def_34 () (Array Int Int) (store .def_10 .def_12 2))
(define-fun .def_35 () Bool (= |.x{19}| .def_34))
(define-fun .def_30 () (Array Int Int) (store .def_8 .def_12 1))
(define-fun .def_31 () Bool (= |.x{18}| .def_30))
(define-fun .def_27 () Bool (= .def_14 |.y{7}|))
(define-fun .def_24 () Bool (not |.loc{3}|))
(define-fun .def_26 () Bool (and .def_24 .def_25))
(define-fun .def_28 () Bool (and .def_26 .def_27))
(define-fun .def_32 () Bool (and .def_28 .def_31))
(define-fun .def_36 () Bool (and .def_32 .def_35))
(define-fun .def_41 () Bool (and .def_36 .def_40))
(define-fun .def_44 () Bool (and .def_41 .def_43))
(define-fun .def_74 () Bool (! (or .def_44 .def_73) :trans true))
(define-fun .def_80 () Int (! |.x{37}| :next |.xpv{1}|))
(define-fun .def_87 () Bool (<= .def_80 0))
(define-fun .def_88 () Bool (not .def_87))
(define-fun .def_89 () Bool (and .def_47 .def_88))
(define-fun .def_85 () Bool (<= .def_20 .def_80))
(define-fun .def_86 () Bool (not .def_85))
(define-fun .def_90 () Bool (and .def_86 .def_89))
(define-fun .def_81 () Int (select .def_16 .def_80))
(define-fun .def_83 () Bool (<= 3 .def_81))
(define-fun .def_84 () Bool (not .def_83))
(define-fun .def_91 () Bool (and .def_84 .def_90))
(define-fun .def_92 () Bool (and .def_22 .def_91))
(define-fun .def_94 () Bool (! (not .def_92) :invar-property 0))
(assert true)
